120
150
50
43
43
50
50
49
59
40
50
54
40
56
45
50
56
44
50
52
49
49
40
40
40
52
50
48
44
53
53
41
57
52
40
55
56
50
44
58
51
41
40
40
40
52
46
52
40
42
43
44
52
54
45
48
60
59
51
53
46
52
40
60
60
58
41
51
60
40
50
44
50
56
55
51
60
40
55
43
52
47
52
51
40
40
40
50
49
51
60
45
45
40
42
40
50
55
45
54
53
44
49
58
48
44
59
60
44
58
48
57
58
50
50
60
58
40
55
55
54
52
